\ SCIP STATISTICS
\   Problem name     : model
\   Variables        : 27 (26 binary, 0 integer, 0 implicit integer, 1 continuous)
\   Constraints      : 28
Minimize
 Obj: +1 s
Subject to
 c1: +1 x00 = +1
 c2: +1 x10 = +1
 c3: +1 x20 = +1
 c4: +1 x30 = +1
 c5: +1 x40 = +1
 c6: +1 x50 = +1
 c7: +1 x60 = +1
 c8: +1 x70 = +1
 c9: +1 x80 = +1
 c10: +1 x90 = +1
 c11: +1 x100 = +1
 c12: +1 x110 = +1
 c13: +1 x120 = +1
 c14: +1 x130 = +1
 c15: +1 x140 = +1
 c16: +1 x150 = +1
 c17: +1 x160 = +1
 c18: +1 x170 = +1
 c19: +1 x180 = +1
 c20: +1 x190 = +1
 c21: +1 x200 = +1
 c22: +1 x210 = +1
 c23: +1 x220 = +1
 c24: +1 x230 = +1
 c25: +1 x240 = +1
 c26: +1 x250 = +1
 c27: +1 x00 +1 x10 +1 x20 +1 x30 +1 x40 +1 x50 +1 x60 +1 x70 +1 x80 +1 x90 +1 x100 +1 x110 +1 x120 +1 x130
  +1 x140 +1 x150 +1 x160 +1 x170 +1 x180 +1 x190 +1 x200 +1 x210 +1 x220 +1 x230 +1 x240 +1 x250 = +1
 c28: +1 s -19.7897624112044 x00 >= +0
Bounds
 0 <= x00 <= 1
 0 <= x10 <= 1
 0 <= x20 <= 1
 0 <= x30 <= 1
 0 <= x40 <= 1
 0 <= x50 <= 1
 0 <= x60 <= 1
 0 <= x70 <= 1
 0 <= x80 <= 1
 0 <= x90 <= 1
 0 <= x100 <= 1
 0 <= x110 <= 1
 0 <= x120 <= 1
 0 <= x130 <= 1
 0 <= x140 <= 1
 0 <= x150 <= 1
 0 <= x160 <= 1
 0 <= x170 <= 1
 0 <= x180 <= 1
 0 <= x190 <= 1
 0 <= x200 <= 1
 0 <= x210 <= 1
 0 <= x220 <= 1
 0 <= x230 <= 1
 0 <= x240 <= 1
 0 <= x250 <= 1
 s free
Binaries
 x00 x10 x20 x30 x40 x50 x60 x70 x80 x90 x100 x110 x120 x130 x140 x150 x160 x170 x180 x190 x200 x210 x220
 x230 x240 x250
End
